Traveling Salesman Problem/TSP_generados/Aleatorio1621103346_11.tsp
NAME: Aleatorio1621103346_11.tsp
COMMENT: Randomly generated scenario
TYPE: TSP
DIMENSION: 11
EDGE_WEIGHT_TYPE: ATT
NODE_COORD_SECTION
1 24.35 18.33
2 13.98 0.54
3 12.17 13.16
4 18.99 11.72
5 6.77 7.9
6 36.66 38.49
7 21.79 43.67
8 0.23 9.23
9 26.73 23.24
10 46.33 32.64
11 49.23 44.34
