Traveling Salesman Problem/TSP_generados/Aleatorio1621103346_11.opt.tour
NAME: Aleatorio1621103346_11.opt.tour
COMMENT: Optimal solution for Aleatorio1621103346_11 (151.1581182294254)
TYPE: TOUR
DIMENSION: 11
TOUR_SECTION
1 4 2 5 8 3 7 6 11 10 9
-1
EOF
